#######################################
### Exact MIP solver for the HHCRSP ###
#######################################
-- Instance file: new-instances/HHCRSP_200_40_49_1.6_C_C.txt
-- Max threads: 4
-- Time limit: 999999 seconds
-- Use initial solution: No
Trivial flow violations prevented generating 370824 variables.
Version identifier: 20.1.0.0 | 2020-11-10 | 9bedb6d68
CPXPARAM_Threads                                 4
CPXPARAM_TimeLimit                               999999
Parallel mode: deterministic, using up to 4 threads for concurrent optimization:
 * Starting dual Simplex on 1 thread...
 * Starting Barrier on 3 threads...
Tried aggregator 1 time.
LP Presolve eliminated 21252 rows and 4727 columns.
Reduced LP has 376080 rows, 356715 columns, and 6605898 nonzeros.
Presolve time = 13.22 sec. (1530.73 ticks)
Symmetry aggregator did 549901 additional substitutions.

Iteration log . . .
Iteration:     1   Dual objective     =             0.000000
Iteration:   954   Dual objective     =           187.000000

Dual crossover.
  Dual:  Fixing 980 variables.
      979 DMoves:  Infeasibility  8.97586790e-13  Objective  1.90000000e+02
        0 DMoves:  Infeasibility  5.51213860e-13  Objective  1.90000000e+02
  Dual:  Pushed 20, exchanged 960.
  Primal:  Fixing 381 variables.
      380 PMoves:  Infeasibility  2.77555756e-17  Objective  1.90000000e+02
        0 PMoves:  Infeasibility  3.60822483e-16  Objective  1.90000000e+02
  Primal:  Pushed 291, exchanged 90.

Dual simplex solved model.


Solution status from MIP model:
-- Processing time: 21.229 sec.
-- Memory used: 405.418 MB
-- Best bound: inf
-- Obj value: 190
-- Gap: inf%
-- Total distance: 570
-- Total tardiness: 0
-- Largest tardiness: 0
